
Gurobi 9.5.1 (mac64[x86]) logging started Fri Jun 10 01:02:57 2022

Set parameter LogFile to value "/Users/keyvanmajd/Documents/GitHub/NNRepLayer_v2/demos/walking_example/dynamic_constraint/repair_net/logs/opt_log_6_10_2022_1_2_3.log"
Gurobi Optimizer version 9.5.1 build v9.5.1rc2 (mac64[x86])
Thread count: 4 physical cores, 8 logical processors, using up to 8 threads
Optimize a model with 40962 rows, 25207 columns and 115394 nonzeros
Model fingerprint: 0x93317271
Model has 151 quadratic objective terms
Variable types: 10807 continuous, 14400 integer (14400 binary)
Coefficient statistics:
  Matrix range     [7e-04, 6e+01]
  Objective range  [2e-02, 3e+00]
  QObjective range [1e-01, 2e+00]
  Bounds range     [1e+00, 6e+01]
  RHS range        [2e-04, 6e+01]
Presolve removed 24620 rows and 9760 columns
Presolve time: 0.24s
Presolved: 16342 rows, 15447 columns, 76054 nonzeros
Presolved model has 151 quadratic objective terms
Variable types: 10647 continuous, 4800 integer (4800 binary)
Root relaxation presolve removed 4800 rows and 4800 columns
Root relaxation presolved: 11542 rows, 10647 columns, 66454 nonzeros
Root relaxation presolved model has 151 quadratic objective terms


Root relaxation: objective 8.044245e+01, 13514 iterations, 1.42 seconds (2.43 work units)

    Nodes    |    Current Node    |     Objective Bounds      |     Work
 Expl Unexpl |  Obj  Depth IntInf | Incumbent    BestBd   Gap | It/Node Time

     0     0   80.44245    0  886          -   80.44245      -     -    3s
     0     0   80.44245    0  816          -   80.44245      -     -   20s
     0     0   80.44245    0  739          -   80.44245      -     -   21s
     0     0   80.44245    0  910          -   80.44245      -     -   22s
     0     0   80.44245    0  868          -   80.44245      -     -   22s
     0     0   80.44245    0  704          -   80.44245      -     -   25s
     0     0   80.44245    0  963          -   80.44245      -     -   26s
     0     0   80.44245    0 1013          -   80.44245      -     -   28s
     0     0   80.44245    0  999          -   80.44245      -     -   29s
     0     0   80.44245    0 1060          -   80.44245      -     -   31s
     0     0   80.44245    0 1060          -   80.44245      -     -   50s
     0     2   80.44245    0 1060          -   80.44245      -     -  131s
     7    12   80.46772    3 1216          -   80.44245      -  1125  140s
   243   262   80.46772   65 1046          -   80.44245      -   123  145s
   355   379   80.46772   94 1029          -   80.44245      -   107  150s
   687   845   80.46772  175  923          -   80.44245      -  93.2  157s
  1010  1218   80.46774  270  808          -   80.44245      -  94.3  162s
  1217  1384   80.46774  322  773          -   80.44245      -  89.5  165s
  1609  1938   80.47698  377 1293          -   80.44245      -  93.5  170s
  2752  2988   80.51235  654 1114          -   80.44245      -  84.0  176s
  3467  3613   80.61539  861  982          -   80.44245      -  89.2  182s
  3618  3745   80.62265  861  961          -   80.44245      -   102  186s
  3812  3873   80.83488  864 1021          -   80.44245      -   126  190s
  4051  4180   80.89274  904  994          -   80.44245      -   149  196s
  4278  4351   80.89274  933  988          -   80.44245      -   158  203s
  4356  4421   80.89278  960  987          -   80.44245      -   169  205s
  4426  4532   80.89810  970  978          -   80.44245      -   179  210s
  4582  4658   80.89278  985  988          -   80.44245      -   197  224s
  4663  4725   80.89278  999  989          -   80.44245      -   215  227s
  4730  4740   80.89278 1026  992          -   80.44245      -   219  237s
  4745  4760   80.89278 1028  991          -   80.44245      -   240  240s
  4765  4817   80.89957 1030  962          -   80.44245      -   245  249s
  4822  4897   80.90466 1043  950          -   80.44245      -   266  255s
  4902  4909   80.90466 1051  969          -   80.44245      -   269  260s
  4914  4921   80.92676 1056  995          -   80.44245      -   284  269s
  4926  4974   80.92676 1063  989          -   80.44245      -   302  273s
  4979  4987   80.92676 1083  966          -   80.44245      -   305  283s
  4992  5019   80.92676 1085  983          -   80.44245      -   328  290s
  5024  5043   80.92676 1092  978          -   80.44245      -   344  305s
  5145  5140   80.48340   82 1060          -   80.44245      -   359  311s
  5146  5140   80.68940  857  870          -   80.44245      -   359  321s
  5147  5141   80.45903   87  816          -   80.44245      -   359  331s
  5148  5142   80.48172  373  755          -   80.44245      -   359  336s
  5150  5143   80.55923  734  919          -   80.44245      -   359  347s
  5152  5144   80.46772  154 1030          -   80.44245      -   359  354s
  5153  5145   80.56187 1006 1050          -   80.44245      -   359  355s
  5154  5146   80.55923  564  816          -   80.44245      -   359  362s
  5155  5146   80.49213  297  747          -   80.44245      -   358  367s
  5156  5147   80.44706  174  744          -   80.44391      -   358  375s
  5158  5148   80.49213  295  635          -   80.44391      -   358  386s
  5159  5149   80.85247  787  785          -   80.44391      -   358  403s

Cutting planes:
  Gomory: 3
  Implied bound: 165
  MIR: 728
  Flow cover: 221
  Relax-and-lift: 46

Explored 5160 nodes (2022582 simplex iterations) in 426.61 seconds (654.17 work units)
Thread count was 8 (of 8 available processors)

Solution count 0

Solve interrupted
Best objective -, best bound 8.044391104485e+01, gap -
